&CONTROL
  calculation = 'vc-md'
  etot_conv_thr =   8.0000000000d-05
  forc_conv_thr =   1.0000000000d-04
  restart_mode = 'from_scratch'
  outdir = './out/'
  pseudo_dir = './pseudo/'
  prefix = 'si_au3'
  tprnfor = .true.
  tstress = .true.
  restart_mode = 'from_scratch'
  dt = 20.0
  nstep=50
/
&SYSTEM
  ibrav = 0
  nat = 16
  ntyp = 2
  ecutwfc = 45
  ecutrho = 240
  occupations = 'smearing'
  smearing = 'cold'
  degauss = 0.02
  nosym = .TRUE.
/
&ELECTRONS
  conv_thr =   1.6000000000d-09
  electron_maxstep = 80
  mixing_beta =   4.0000000000d-01
/
&IONS
  ion_temperature = 'initial'
  ion_dynamics = 'beeman'
  tempw = 2000
/
&CELL
  cell_dynamics = 'pr'
/
ATOMIC_SPECIES
Au  196.966569  Au_ONCV_PBEsol-1.0.upf
Si  28.0855     Si.pbesol-n-rrkjus_psl.1.0.0.UPF
ATOMIC_POSITIONS (crystal)
Si            0.0000000000        0.0000000000        0.0000000000
Si            0.0000000000        0.5000000000        0.5000000000
Si            0.5000000000        0.0000000000        0.5000000000
Si            0.5000000000        0.5000000000        0.0000000000
Au            0.2500000227        0.7499999773        0.7499999773
Au            0.2500000227        0.2500000227        0.7499999773
Au            0.5000000000        0.0000000000        0.0000000000
Au            0.2500000227        0.2500000227        0.2500000227
Au            0.2500000227        0.7499999773        0.2500000227
Au            0.5000000000        0.5000000000        0.5000000000
Au            0.7499999773        0.7499999773        0.2500000227
Au            0.7499999773        0.2500000227        0.2500000227
Au            0.0000000000        0.0000000000        0.5000000000
Au            0.7499999773        0.2500000227        0.7499999773
Au            0.7499999773        0.7499999773        0.7499999773
Au            0.0000000000        0.5000000000        0.0000000000
K_POINTS automatic
3 3 3 0 0 0
CELL_PARAMETERS angstrom
6.5714680000  0.0000000000  0.0000000000
0.0000000000  6.5714680000  0.0000000000
0.0000000000  0.0000000000  6.5714680000