&CONTROL
  calculation = 'md'
  etot_conv_thr =   8.0000000000d-05
  forc_conv_thr =   1.0000000000d-04
  outdir = './out/'
  prefix = 'siau_relax'
  pseudo_dir = './pseudo/'
  tprnfor = .true.
  tstress = .true.
  restart_mode = 'from_scratch'
  dt = 20.0 ! same value from melt
  nstep=100 ! same value from melt
/
&SYSTEM
  degauss =   2.0000000000d-02
  ecutrho =   2.4000000000d+02
  ecutwfc =   4.5000000000d+01
  ibrav = 0
  nat = 8
  nosym = .TRUE.
  ntyp = 2
  occupations = 'smearing'
  smearing = 'cold'
/
&ELECTRONS
  conv_thr =   1.6000000000d-09
  electron_maxstep = 80
  mixing_beta =   4.0000000000d-01
/
&IONS
  pot_extrapolation = 'second_order'
  wfc_extrapolation = 'second_order'
  ion_temperature = 'reduce-T'
  ion_dynamics = 'verlet'
  tempw = 5652.3 ! the final temp when melting, so begin cooling from there
  delta_t = -1000
  nraise = 20
/
ATOMIC_SPECIES
Au     196.966569 Au_ONCV_PBEsol-1.0.upf
Si     28.0855 Si.pbesol-n-rrkjus_psl.1.0.0.UPF
ATOMIC_POSITIONS (crystal)
Si            0.6413271946        0.2957755277        0.1866230021
Si            0.2527541601        0.6062298646        0.5944884637
Au            0.3580733309        0.0895854067        0.7787501370
Au            0.8588152726        0.2374128817        0.7866710629
Au            0.8420140051        0.6913650683        0.7690966822
Au            0.6562618642        0.8802108785        0.2688021725
Au            0.0914121283        0.7763395602        0.2467999608
Au            0.2085263584        0.3390592743        0.1810913416
K_POINTS automatic
3 3 3 0 0 0
CELL_PARAMETERS angstrom
      5.8362682800       0.0000000000       0.0000000000
     -2.9181341400       5.0543565938       0.0000000000
      0.0000000000       0.0000000000       4.7393460000