&CONTROL
  calculation = 'vc-relax'
  etot_conv_thr =   1.6000000000d-04
  forc_conv_thr =   1.0000000000d-04
  outdir = './out/'
  prefix = 'siau_relax'
  pseudo_dir = './pseudo/'
  tprnfor = .true.
  tstress = .true.
  verbosity = 'high'
/
&SYSTEM
  degauss =   2.0000000000d-02
  ecutrho =   2.4000000000d+02
  ecutwfc =   4.5000000000d+01
  ibrav = 0
  nat = 16
  nosym = .false.
  ntyp = 2
  occupations = 'smearing'
  smearing = 'cold'
/
&ELECTRONS
  conv_thr =   3.2000000000d-09
  electron_maxstep = 80
  mixing_beta =   4.0000000000d-01
/
&IONS
  ion_dynamics = 'bfgs'
/
&CELL
  cell_dynamics = 'bfgs'
  press_conv_thr = 0.5
/
ATOMIC_SPECIES
Au     196.966569 Au_ONCV_PBEsol-1.0.upf
Si     28.0855 Si.pbesol-n-rrkjus_psl.1.0.0.UPF
ATOMIC_POSITIONS crystal
Si           0.0000000000       0.0000000000       0.0000000000
Si           0.0000000000       0.5000000000       0.5000000000
Si           0.5000000000       0.0000000000       0.5000000000
Si           0.5000000000       0.5000000000       0.0000000000
Au           0.2500000000       0.7500000000       0.7500000000
Au           0.2500000000       0.2500000000       0.7500000000
Au           0.5000000000       0.0000000000       0.0000000000
Au           0.2500000000       0.2500000000       0.2500000000
Au           0.2500000000       0.7500000000       0.2500000000
Au           0.5000000000       0.5000000000       0.5000000000
Au           0.7500000000       0.7500000000       0.2500000000
Au           0.7500000000       0.2500000000       0.2500000000
Au           0.0000000000       0.0000000000       0.5000000000
Au           0.7500000000       0.2500000000       0.7500000000
Au           0.7500000000       0.7500000000       0.7500000000
Au           0.0000000000       0.5000000000       0.0000000000
K_POINTS automatic
7 7 7 0 0 0
CELL_PARAMETERS angstrom
      6.5714680000       0.0000000000       0.0000000000
      0.0000000000       6.5714680000       0.0000000000
      0.0000000000       0.0000000000       6.5714680000
