&CONTROL
  calculation = 'md'
  restart_mode = 'restart'
  outdir = './out/'
  pseudo_dir = './pseudo/'
  prefix = 'si_au3'
  dt = 10.0
  nstep = 50  ! Number of steps
/
&SYSTEM
  ibrav = 0
  nat = 16
  ntyp = 2
  ecutwfc = 45
  ecutrho = 240
  occupations = 'smearing'
  smearing = 'cold'
  degauss = 0.02
/
&ELECTRONS
  conv_thr = 1.0d-8
/
&IONS
  ion_temperature = 'reduce-T'
  tempw = 1900
  delta_t = 1.2
  nraise = 50
/
ATOMIC_SPECIES
Au  196.966569  Au_ONCV_PBEsol-1.0.upf
Si  28.0855     Si.pbesol-n-rrkjus_psl.1.0.0.UPF
ATOMIC_POSITIONS (crystal)
Si            0.0000000059        0.0000000059        0.0000000059
Si            0.0000000059        0.5000000026        0.5000000026
Si            0.5000000026        0.0000000059        0.5000000026
Si            0.5000000026        0.5000000026        0.0000000059
Au            0.3718371867        0.6281628084        0.6281628084
Au            0.3718371867        0.3718371867        0.6281628084
Au            0.5000000026        0.0000000059        0.0000000059
Au            0.3718371867        0.3718371867        0.3718371867
Au            0.3718371867        0.6281628084        0.3718371867
Au            0.5000000026        0.5000000026        0.5000000026
Au            0.6281628084        0.6281628084        0.3718371867
Au            0.6281628084        0.3718371867        0.3718371867
Au            0.0000000059        0.0000000059        0.5000000026
Au            0.6281628084        0.3718371867        0.6281628084
Au            0.6281628084        0.6281628084        0.6281628084
Au            0.0000000059        0.5000000026        0.0000000059
K_POINTS automatic
3 3 3 0 0 0
CELL_PARAMETERS angstrom
"SiAu_quench.in" 55L, 1808B   