#************************************************************************************
#*                   Generated by cif2cell 2.1.0 2025-01-21 13:32                   *
#*  T. Bjorkman, Comp. Phys. Commun. 182, 1183-1186 (2011). Please cite generously. *
#*                                                                                  *
#*                              Data obtained from COD                              *
#*                                    SiAu3   ()                                    *
#*             Failed to get author information, No journal information             *
#************************************************************************************

&SYSTEM
  ibrav = 0
  A =    6.57147
  nat = 16
  ntyp = 2
/
CELL_PARAMETERS {angstrom}
  6.571468000000000   0.000000000000000   0.000000000000000 
  0.000000000000000   6.571468000000000   0.000000000000000 
  0.000000000000000   0.000000000000000   6.571468000000000 
ATOMIC_SPECIES
  Si   28.08500  Si_PSEUDO
  Au  196.96600  Au_PSEUDO
ATOMIC_POSITIONS {crystal}
Au   0.250000000000000   0.750000000000000   0.750000000000000 
Au   0.250000000000000   0.250000000000000   0.750000000000000 
Au   0.500000000000000   0.000000000000000   0.000000000000000 
Au   0.250000000000000   0.250000000000000   0.250000000000000 
Au   0.250000000000000   0.750000000000000   0.250000000000000 
Au   0.500000000000000   0.500000000000000   0.500000000000000 
Au   0.750000000000000   0.750000000000000   0.250000000000000 
Au   0.750000000000000   0.250000000000000   0.250000000000000 
Au   0.000000000000000   0.000000000000000   0.500000000000000 
Au   0.750000000000000   0.250000000000000   0.750000000000000 
Au   0.750000000000000   0.750000000000000   0.750000000000000 
Au   0.000000000000000   0.500000000000000   0.000000000000000 
Si   0.000000000000000   0.000000000000000   0.000000000000000 
Si   0.000000000000000   0.500000000000000   0.500000000000000 
Si   0.500000000000000   0.000000000000000   0.500000000000000 
Si   0.500000000000000   0.500000000000000   0.000000000000000 
