&CONTROL
  calculation = 'scf'
  etot_conv_thr =   4.6000000000d-04
  forc_conv_thr =   1.0000000000d-04
  outdir = './out/'
  prefix = 'aiida'
  pseudo_dir = './pseudo/'
  tprnfor = .true.
  tstress = .true.
  verbosity = 'high'
/
&SYSTEM
  degauss =   2.7500000000d-02
  ecutrho =   2.4000000000d+02
  ecutwfc =   4.5000000000d+01
  ibrav = 0
  nat = 46
  nosym = .false.
  ntyp = 2
  occupations = 'smearing'
  smearing = 'cold'
/
&ELECTRONS
  conv_thr =   9.2000000000d-09
  electron_maxstep = 80
  mixing_beta =   4.0000000000d-01
/
ATOMIC_SPECIES
Au     196.966569 Au_ONCV_PBEsol-1.0.upf
Si     28.0855 Si.pbesol-n-rrkjus_psl.1.0.0.UPF
ATOMIC_POSITIONS crystal
Si           0.6973820000       0.0000000000       0.0000000000
Si           0.0000000000       0.0000000000       0.3026180000
Si          -0.0000000000       0.3026180000       0.0000000000
Si           0.1973820000       0.5000000000       0.5000000000
Si           0.5000000000       0.5000000000       0.8026180000
Si           0.5000000000       0.8026180000       0.5000000000
Au           0.1467160000       0.4586760000       0.1467160000
Au           0.1467160000       0.1467160000       0.4586760000
Au           0.4586760000       0.1467160000       0.1467160000
Au           0.3532840000       0.9586760000       0.3532840000
Au           0.8532840000       0.1467160000       0.5413240000
Au           0.5413240000       0.1467160000       0.8532840000
Au           0.1467160000       0.5413240000       0.8532840000
Au           0.1467160000       0.8532840000       0.5413240000
Au           0.9586760000       0.3532840000       0.3532840000
Au           0.8532840000       0.5413240000       0.1467160000
Au           0.3532840000       0.3532840000       0.9586760000
Au           0.5413240000       0.8532840000       0.1467160000
Au           0.3464410000       0.3464410000       0.3464410000
Au           0.1535590000       0.8464410000       0.1535590000
Au           0.8464410000       0.1535590000       0.1535590000
Au           0.1535590000       0.1535590000       0.8464410000
Au           0.1611820000       0.1611820000       0.1611820000
Au           0.3388180000       0.6611830000       0.3388180000
Au           0.6611830000       0.3388180000       0.3388180000
Au           0.3388180000       0.3388180000       0.6611830000
Au           0.6467160000       0.9586760000       0.6467160000
Au           0.6467160000       0.6467160000       0.9586760000
Au           0.9586760000       0.6467160000       0.6467160000
Au           0.8532840000       0.4586760000       0.8532840000
Au           0.3532840000       0.6467160000       0.0413240000
Au           0.0413240000       0.6467160000       0.3532840000
Au           0.6467160000       0.0413240000       0.3532840000
Au           0.6467160000       0.3532840000       0.0413240000
Au           0.4586760000       0.8532840000       0.8532840000
Au           0.3532840000       0.0413240000       0.6467160000
Au           0.8532840000       0.8532840000       0.4586760000
Au           0.0413240000       0.3532840000       0.6467160000
Au           0.8464410000       0.8464410000       0.8464410000
Au           0.6535590000       0.3464410000       0.6535590000
Au           0.3464410000       0.6535590000       0.6535590000
Au           0.6535590000       0.6535590000       0.3464410000
Au           0.6611830000       0.6611830000       0.6611830000
Au           0.8388170000       0.1611820000       0.8388170000
Au           0.1611820000       0.8388170000       0.8388170000
Au           0.8388170000       0.8388170000       0.1611820000
K_POINTS automatic
3 3 3 0 0 0
CELL_PARAMETERS angstrom
      9.7762700000       0.0000000000       0.0000000000
      4.8881350000       8.4664981743       0.0000000000
      0.0000000000       0.0000000000       9.7762700000
