&CONTROL
  calculation = 'scf'
  etot_conv_thr =   4.1600000000d-03
  forc_conv_thr =   1.0000000000d-04
  outdir = './out/'
  prefix = 'aiida'
  pseudo_dir = './pseudo/'
  tprnfor = .true.
  tstress = .true.
  verbosity = 'high'
/
&SYSTEM
  degauss =   2.7500000000d-02
  ecutrho =   2.4000000000d+02
  ecutwfc =   4.5000000000d+01
  ibrav = 0
  nat = 416
  nosym = .false.
  ntyp = 2
  occupations = 'smearing'
  smearing = 'cold'
/
&ELECTRONS
  conv_thr =   8.3200000000d-08
  electron_maxstep = 80
  mixing_beta =   4.0000000000d-01
/
ATOMIC_SPECIES
Au     196.966569 Au_ONCV_PBEsol-1.0.upf
Si     28.0855 Si.pbesol-n-rrkjus_psl.1.0.0.UPF
ATOMIC_POSITIONS crystal
Si           0.0000000000       0.0000000000       0.3486910000
Si           0.0000000000       0.0000000000       0.8486910000
Si           0.0000000000       0.5000000000       0.3486910000
Si           0.0000000000       0.5000000000       0.8486910000
Si           0.5000000000       0.0000000000       0.3486910000
Si           0.5000000000       0.0000000000       0.8486910000
Si           0.5000000000       0.5000000000       0.3486910000
Si           0.5000000000       0.5000000000       0.8486910000
Si           0.3486910000       0.0000000000       0.0000000000
Si           0.3486910000       0.0000000000       0.5000000000
Si           0.3486910000       0.5000000000       0.0000000000
Si           0.3486910000       0.5000000000       0.5000000000
Si           0.8486910000       0.0000000000       0.0000000000
Si           0.8486910000       0.0000000000       0.5000000000
Si           0.8486910000       0.5000000000       0.0000000000
Si           0.8486910000       0.5000000000       0.5000000000
Si           0.0000000000       0.3486910000       0.0000000000
Si           0.0000000000       0.3486910000       0.5000000000
Si           0.0000000000       0.8486910000       0.0000000000
Si           0.0000000000       0.8486910000       0.5000000000
Si           0.5000000000       0.3486910000       0.0000000000
Si           0.5000000000       0.3486910000       0.5000000000
Si           0.5000000000       0.8486910000       0.0000000000
Si           0.5000000000       0.8486910000       0.5000000000
Si           0.0000000000       0.0000000000       0.1513090000
Si           0.0000000000       0.0000000000       0.6513090000
Si           0.0000000000       0.5000000000       0.1513090000
Si           0.0000000000       0.5000000000       0.6513090000
Si           0.5000000000       0.0000000000       0.1513090000
Si           0.5000000000       0.0000000000       0.6513090000
Si           0.5000000000       0.5000000000       0.1513090000
Si           0.5000000000       0.5000000000       0.6513090000
Si           0.1513090000       0.0000000000       0.0000000000
Si           0.1513090000       0.0000000000       0.5000000000
Si           0.1513090000       0.5000000000       0.0000000000
Si           0.1513090000       0.5000000000       0.5000000000
Si           0.6513090000       0.0000000000       0.0000000000
Si           0.6513090000       0.0000000000       0.5000000000
Si           0.6513090000       0.5000000000       0.0000000000
Si           0.6513090000       0.5000000000       0.5000000000
Si           0.0000000000       0.1513090000       0.0000000000
Si           0.0000000000       0.1513090000       0.5000000000
Si           0.0000000000       0.6513090000       0.0000000000
Si           0.0000000000       0.6513090000       0.5000000000
Si           0.5000000000       0.1513090000       0.0000000000
Si           0.5000000000       0.1513090000       0.5000000000
Si           0.5000000000       0.6513090000       0.0000000000
Si           0.5000000000       0.6513090000       0.5000000000
Si           0.2500000000       0.2500000000       0.0986910000
Si           0.2500000000       0.2500000000       0.5986910000
Si           0.2500000000       0.7500000000       0.0986910000
Si           0.2500000000       0.7500000000       0.5986910000
Si           0.7500000000       0.2500000000       0.0986910000
Si           0.7500000000       0.2500000000       0.5986910000
Si           0.7500000000       0.7500000000       0.0986910000
Si           0.7500000000       0.7500000000       0.5986910000
Si           0.0986910000       0.2500000000       0.2500000000
Si           0.0986910000       0.2500000000       0.7500000000
Si           0.0986910000       0.7500000000       0.2500000000
Si           0.0986910000       0.7500000000       0.7500000000
Si           0.5986910000       0.2500000000       0.2500000000
Si           0.5986910000       0.2500000000       0.7500000000
Si           0.5986910000       0.7500000000       0.2500000000
Si           0.5986910000       0.7500000000       0.7500000000
Si           0.2500000000       0.0986910000       0.2500000000
Si           0.2500000000       0.0986910000       0.7500000000
Si           0.2500000000       0.5986910000       0.2500000000
Si           0.2500000000       0.5986910000       0.7500000000
Si           0.7500000000       0.0986910000       0.2500000000
Si           0.7500000000       0.0986910000       0.7500000000
Si           0.7500000000       0.5986910000       0.2500000000
Si           0.7500000000       0.5986910000       0.7500000000
Si           0.2500000000       0.2500000000       0.4013090000
Si           0.2500000000       0.2500000000       0.9013090000
Si           0.2500000000       0.7500000000       0.4013090000
Si           0.2500000000       0.7500000000       0.9013090000
Si           0.7500000000       0.2500000000       0.4013090000
Si           0.7500000000       0.2500000000       0.9013090000
Si           0.7500000000       0.7500000000       0.4013090000
Si           0.7500000000       0.7500000000       0.9013090000
Si           0.4013090000       0.2500000000       0.2500000000
Si           0.4013090000       0.2500000000       0.7500000000
Si           0.4013090000       0.7500000000       0.2500000000
Si           0.4013090000       0.7500000000       0.7500000000
Si           0.9013090000       0.2500000000       0.2500000000
Si           0.9013090000       0.2500000000       0.7500000000
Si           0.9013090000       0.7500000000       0.2500000000
Si           0.9013090000       0.7500000000       0.7500000000
Si           0.2500000000       0.4013090000       0.2500000000
Si           0.2500000000       0.4013090000       0.7500000000
Si           0.2500000000       0.9013090000       0.2500000000
Si           0.2500000000       0.9013090000       0.7500000000
Si           0.7500000000       0.4013090000       0.2500000000
Si           0.7500000000       0.4013090000       0.7500000000
Si           0.7500000000       0.9013090000       0.2500000000
Si           0.7500000000       0.9013090000       0.7500000000
Au           0.0733580000       0.2293380000       0.0733580000
Au           0.0733580000       0.2293380000       0.5733580000
Au           0.0733580000       0.7293380000       0.0733580000
Au           0.0733580000       0.7293380000       0.5733580000
Au           0.5733580000       0.2293380000       0.0733580000
Au           0.5733580000       0.2293380000       0.5733580000
Au           0.5733580000       0.7293380000       0.0733580000
Au           0.5733580000       0.7293380000       0.5733580000
Au           0.0733580000       0.0733580000       0.2293380000
Au           0.0733580000       0.0733580000       0.7293380000
Au           0.0733580000       0.5733580000       0.2293380000
Au           0.0733580000       0.5733580000       0.7293380000
Au           0.5733580000       0.0733580000       0.2293380000
Au           0.5733580000       0.0733580000       0.7293380000
Au           0.5733580000       0.5733580000       0.2293380000
Au           0.5733580000       0.5733580000       0.7293380000
Au           0.2293380000       0.0733580000       0.0733580000
Au           0.2293380000       0.0733580000       0.5733580000
Au           0.2293380000       0.5733580000       0.0733580000
Au           0.2293380000       0.5733580000       0.5733580000
Au           0.7293380000       0.0733580000       0.0733580000
Au           0.7293380000       0.0733580000       0.5733580000
Au           0.7293380000       0.5733580000       0.0733580000
Au           0.7293380000       0.5733580000       0.5733580000
Au           0.1766420000       0.4793380000       0.1766420000
Au           0.1766420000       0.4793380000       0.6766420000
Au           0.1766420000       0.9793380000       0.1766420000
Au           0.1766420000       0.9793380000       0.6766420000
Au           0.6766420000       0.4793380000       0.1766420000
Au           0.6766420000       0.4793380000       0.6766420000
Au           0.6766420000       0.9793380000       0.1766420000
Au           0.6766420000       0.9793380000       0.6766420000
Au           0.4266420000       0.0733580000       0.2706620000
Au           0.4266420000       0.0733580000       0.7706620000
Au           0.4266420000       0.5733580000       0.2706620000
Au           0.4266420000       0.5733580000       0.7706620000
Au           0.9266420000       0.0733580000       0.2706620000
Au           0.9266420000       0.0733580000       0.7706620000
Au           0.9266420000       0.5733580000       0.2706620000
Au           0.9266420000       0.5733580000       0.7706620000
Au           0.2706620000       0.0733580000       0.4266420000
Au           0.2706620000       0.0733580000       0.9266420000
Au           0.2706620000       0.5733580000       0.4266420000
Au           0.2706620000       0.5733580000       0.9266420000
Au           0.7706620000       0.0733580000       0.4266420000
Au           0.7706620000       0.0733580000       0.9266420000
Au           0.7706620000       0.5733580000       0.4266420000
Au           0.7706620000       0.5733580000       0.9266420000
Au           0.0733580000       0.2706620000       0.4266420000
Au           0.0733580000       0.2706620000       0.9266420000
Au           0.0733580000       0.7706620000       0.4266420000
Au           0.0733580000       0.7706620000       0.9266420000
Au           0.5733580000       0.2706620000       0.4266420000
Au           0.5733580000       0.2706620000       0.9266420000
Au           0.5733580000       0.7706620000       0.4266420000
Au           0.5733580000       0.7706620000       0.9266420000
Au           0.0733580000       0.4266420000       0.2706620000
Au           0.0733580000       0.4266420000       0.7706620000
Au           0.0733580000       0.9266420000       0.2706620000
Au           0.0733580000       0.9266420000       0.7706620000
Au           0.5733580000       0.4266420000       0.2706620000
Au           0.5733580000       0.4266420000       0.7706620000
Au           0.5733580000       0.9266420000       0.2706620000
Au           0.5733580000       0.9266420000       0.7706620000
Au           0.4793380000       0.1766420000       0.1766420000
Au           0.4793380000       0.1766420000       0.6766420000
Au           0.4793380000       0.6766420000       0.1766420000
Au           0.4793380000       0.6766420000       0.6766420000
Au           0.9793380000       0.1766420000       0.1766420000
Au           0.9793380000       0.1766420000       0.6766420000
Au           0.9793380000       0.6766420000       0.1766420000
Au           0.9793380000       0.6766420000       0.6766420000
Au           0.4266420000       0.2706620000       0.0733580000
Au           0.4266420000       0.2706620000       0.5733580000
Au           0.4266420000       0.7706620000       0.0733580000
Au           0.4266420000       0.7706620000       0.5733580000
Au           0.9266420000       0.2706620000       0.0733580000
Au           0.9266420000       0.2706620000       0.5733580000
Au           0.9266420000       0.7706620000       0.0733580000
Au           0.9266420000       0.7706620000       0.5733580000
Au           0.1766420000       0.1766420000       0.4793380000
Au           0.1766420000       0.1766420000       0.9793380000
Au           0.1766420000       0.6766420000       0.4793380000
Au           0.1766420000       0.6766420000       0.9793380000
Au           0.6766420000       0.1766420000       0.4793380000
Au           0.6766420000       0.1766420000       0.9793380000
Au           0.6766420000       0.6766420000       0.4793380000
Au           0.6766420000       0.6766420000       0.9793380000
Au           0.2706620000       0.4266420000       0.0733580000
Au           0.2706620000       0.4266420000       0.5733580000
Au           0.2706620000       0.9266420000       0.0733580000
Au           0.2706620000       0.9266420000       0.5733580000
Au           0.7706620000       0.4266420000       0.0733580000
Au           0.7706620000       0.4266420000       0.5733580000
Au           0.7706620000       0.9266420000       0.0733580000
Au           0.7706620000       0.9266420000       0.5733580000
Au           0.1732210000       0.1732210000       0.1732210000
Au           0.1732210000       0.1732210000       0.6732210000
Au           0.1732210000       0.6732210000       0.1732210000
Au           0.1732210000       0.6732210000       0.6732210000
Au           0.6732210000       0.1732210000       0.1732210000
Au           0.6732210000       0.1732210000       0.6732210000
Au           0.6732210000       0.6732210000       0.1732210000
Au           0.6732210000       0.6732210000       0.6732210000
Au           0.0767790000       0.4232200000       0.0767790000
Au           0.0767790000       0.4232200000       0.5767790000
Au           0.0767790000       0.9232200000       0.0767790000
Au           0.0767790000       0.9232200000       0.5767790000
Au           0.5767790000       0.4232200000       0.0767790000
Au           0.5767790000       0.4232200000       0.5767790000
Au           0.5767790000       0.9232200000       0.0767790000
Au           0.5767790000       0.9232200000       0.5767790000
Au           0.4232200000       0.0767790000       0.0767790000
Au           0.4232200000       0.0767790000       0.5767790000
Au           0.4232200000       0.5767790000       0.0767790000
Au           0.4232200000       0.5767790000       0.5767790000
Au           0.9232200000       0.0767790000       0.0767790000
Au           0.9232200000       0.0767790000       0.5767790000
Au           0.9232200000       0.5767790000       0.0767790000
Au           0.9232200000       0.5767790000       0.5767790000
Au           0.0767790000       0.0767790000       0.4232200000
Au           0.0767790000       0.0767790000       0.9232200000
Au           0.0767790000       0.5767790000       0.4232200000
Au           0.0767790000       0.5767790000       0.9232200000
Au           0.5767790000       0.0767790000       0.4232200000
Au           0.5767790000       0.0767790000       0.9232200000
Au           0.5767790000       0.5767790000       0.4232200000
Au           0.5767790000       0.5767790000       0.9232200000
Au           0.0805910000       0.0805910000       0.0805910000
Au           0.0805910000       0.0805910000       0.5805910000
Au           0.0805910000       0.5805910000       0.0805910000
Au           0.0805910000       0.5805910000       0.5805910000
Au           0.5805910000       0.0805910000       0.0805910000
Au           0.5805910000       0.0805910000       0.5805910000
Au           0.5805910000       0.5805910000       0.0805910000
Au           0.5805910000       0.5805910000       0.5805910000
Au           0.1694090000       0.3305910000       0.1694090000
Au           0.1694090000       0.3305910000       0.6694090000
Au           0.1694090000       0.8305910000       0.1694090000
Au           0.1694090000       0.8305910000       0.6694090000
Au           0.6694090000       0.3305910000       0.1694090000
Au           0.6694090000       0.3305910000       0.6694090000
Au           0.6694090000       0.8305910000       0.1694090000
Au           0.6694090000       0.8305910000       0.6694090000
Au           0.3305910000       0.1694090000       0.1694090000
Au           0.3305910000       0.1694090000       0.6694090000
Au           0.3305910000       0.6694090000       0.1694090000
Au           0.3305910000       0.6694090000       0.6694090000
Au           0.8305910000       0.1694090000       0.1694090000
Au           0.8305910000       0.1694090000       0.6694090000
Au           0.8305910000       0.6694090000       0.1694090000
Au           0.8305910000       0.6694090000       0.6694090000
Au           0.1694090000       0.1694090000       0.3305910000
Au           0.1694090000       0.1694090000       0.8305910000
Au           0.1694090000       0.6694090000       0.3305910000
Au           0.1694090000       0.6694090000       0.8305910000
Au           0.6694090000       0.1694090000       0.3305910000
Au           0.6694090000       0.1694090000       0.8305910000
Au           0.6694090000       0.6694090000       0.3305910000
Au           0.6694090000       0.6694090000       0.8305910000
Au           0.3233580000       0.4793380000       0.3233580000
Au           0.3233580000       0.4793380000       0.8233580000
Au           0.3233580000       0.9793380000       0.3233580000
Au           0.3233580000       0.9793380000       0.8233580000
Au           0.8233580000       0.4793380000       0.3233580000
Au           0.8233580000       0.4793380000       0.8233580000
Au           0.8233580000       0.9793380000       0.3233580000
Au           0.8233580000       0.9793380000       0.8233580000
Au           0.3233580000       0.3233580000       0.4793380000
Au           0.3233580000       0.3233580000       0.9793380000
Au           0.3233580000       0.8233580000       0.4793380000
Au           0.3233580000       0.8233580000       0.9793380000
Au           0.8233580000       0.3233580000       0.4793380000
Au           0.8233580000       0.3233580000       0.9793380000
Au           0.8233580000       0.8233580000       0.4793380000
Au           0.8233580000       0.8233580000       0.9793380000
Au           0.4793380000       0.3233580000       0.3233580000
Au           0.4793380000       0.3233580000       0.8233580000
Au           0.4793380000       0.8233580000       0.3233580000
Au           0.4793380000       0.8233580000       0.8233580000
Au           0.9793380000       0.3233580000       0.3233580000
Au           0.9793380000       0.3233580000       0.8233580000
Au           0.9793380000       0.8233580000       0.3233580000
Au           0.9793380000       0.8233580000       0.8233580000
Au           0.4266420000       0.2293380000       0.4266420000
Au           0.4266420000       0.2293380000       0.9266420000
Au           0.4266420000       0.7293380000       0.4266420000
Au           0.4266420000       0.7293380000       0.9266420000
Au           0.9266420000       0.2293380000       0.4266420000
Au           0.9266420000       0.2293380000       0.9266420000
Au           0.9266420000       0.7293380000       0.4266420000
Au           0.9266420000       0.7293380000       0.9266420000
Au           0.1766420000       0.3233580000       0.0206620000
Au           0.1766420000       0.3233580000       0.5206620000
Au           0.1766420000       0.8233580000       0.0206620000
Au           0.1766420000       0.8233580000       0.5206620000
Au           0.6766420000       0.3233580000       0.0206620000
Au           0.6766420000       0.3233580000       0.5206620000
Au           0.6766420000       0.8233580000       0.0206620000
Au           0.6766420000       0.8233580000       0.5206620000
Au           0.0206620000       0.3233580000       0.1766420000
Au           0.0206620000       0.3233580000       0.6766420000
Au           0.0206620000       0.8233580000       0.1766420000
Au           0.0206620000       0.8233580000       0.6766420000
Au           0.5206620000       0.3233580000       0.1766420000
Au           0.5206620000       0.3233580000       0.6766420000
Au           0.5206620000       0.8233580000       0.1766420000
Au           0.5206620000       0.8233580000       0.6766420000
Au           0.3233580000       0.0206620000       0.1766420000
Au           0.3233580000       0.0206620000       0.6766420000
Au           0.3233580000       0.5206620000       0.1766420000
Au           0.3233580000       0.5206620000       0.6766420000
Au           0.8233580000       0.0206620000       0.1766420000
Au           0.8233580000       0.0206620000       0.6766420000
Au           0.8233580000       0.5206620000       0.1766420000
Au           0.8233580000       0.5206620000       0.6766420000
Au           0.3233580000       0.1766420000       0.0206620000
Au           0.3233580000       0.1766420000       0.5206620000
Au           0.3233580000       0.6766420000       0.0206620000
Au           0.3233580000       0.6766420000       0.5206620000
Au           0.8233580000       0.1766420000       0.0206620000
Au           0.8233580000       0.1766420000       0.5206620000
Au           0.8233580000       0.6766420000       0.0206620000
Au           0.8233580000       0.6766420000       0.5206620000
Au           0.2293380000       0.4266420000       0.4266420000
Au           0.2293380000       0.4266420000       0.9266420000
Au           0.2293380000       0.9266420000       0.4266420000
Au           0.2293380000       0.9266420000       0.9266420000
Au           0.7293380000       0.4266420000       0.4266420000
Au           0.7293380000       0.4266420000       0.9266420000
Au           0.7293380000       0.9266420000       0.4266420000
Au           0.7293380000       0.9266420000       0.9266420000
Au           0.1766420000       0.0206620000       0.3233580000
Au           0.1766420000       0.0206620000       0.8233580000
Au           0.1766420000       0.5206620000       0.3233580000
Au           0.1766420000       0.5206620000       0.8233580000
Au           0.6766420000       0.0206620000       0.3233580000
Au           0.6766420000       0.0206620000       0.8233580000
Au           0.6766420000       0.5206620000       0.3233580000
Au           0.6766420000       0.5206620000       0.8233580000
Au           0.4266420000       0.4266420000       0.2293380000
Au           0.4266420000       0.4266420000       0.7293380000
Au           0.4266420000       0.9266420000       0.2293380000
Au           0.4266420000       0.9266420000       0.7293380000
Au           0.9266420000       0.4266420000       0.2293380000
Au           0.9266420000       0.4266420000       0.7293380000
Au           0.9266420000       0.9266420000       0.2293380000
Au           0.9266420000       0.9266420000       0.7293380000
Au           0.0206620000       0.1766420000       0.3233580000
Au           0.0206620000       0.1766420000       0.8233580000
Au           0.0206620000       0.6766420000       0.3233580000
Au           0.0206620000       0.6766420000       0.8233580000
Au           0.5206620000       0.1766420000       0.3233580000
Au           0.5206620000       0.1766420000       0.8233580000
Au           0.5206620000       0.6766420000       0.3233580000
Au           0.5206620000       0.6766420000       0.8233580000
Au           0.4232200000       0.4232200000       0.4232200000
Au           0.4232200000       0.4232200000       0.9232200000
Au           0.4232200000       0.9232200000       0.4232200000
Au           0.4232200000       0.9232200000       0.9232200000
Au           0.9232200000       0.4232200000       0.4232200000
Au           0.9232200000       0.4232200000       0.9232200000
Au           0.9232200000       0.9232200000       0.4232200000
Au           0.9232200000       0.9232200000       0.9232200000
Au           0.3267800000       0.1732210000       0.3267800000
Au           0.3267800000       0.1732210000       0.8267800000
Au           0.3267800000       0.6732210000       0.3267800000
Au           0.3267800000       0.6732210000       0.8267800000
Au           0.8267800000       0.1732210000       0.3267800000
Au           0.8267800000       0.1732210000       0.8267800000
Au           0.8267800000       0.6732210000       0.3267800000
Au           0.8267800000       0.6732210000       0.8267800000
Au           0.1732210000       0.3267800000       0.3267800000
Au           0.1732210000       0.3267800000       0.8267800000
Au           0.1732210000       0.8267800000       0.3267800000
Au           0.1732210000       0.8267800000       0.8267800000
Au           0.6732210000       0.3267800000       0.3267800000
Au           0.6732210000       0.3267800000       0.8267800000
Au           0.6732210000       0.8267800000       0.3267800000
Au           0.6732210000       0.8267800000       0.8267800000
Au           0.3267800000       0.3267800000       0.1732210000
Au           0.3267800000       0.3267800000       0.6732210000
Au           0.3267800000       0.8267800000       0.1732210000
Au           0.3267800000       0.8267800000       0.6732210000
Au           0.8267800000       0.3267800000       0.1732210000
Au           0.8267800000       0.3267800000       0.6732210000
Au           0.8267800000       0.8267800000       0.1732210000
Au           0.8267800000       0.8267800000       0.6732210000
Au           0.3305910000       0.3305910000       0.3305910000
Au           0.3305910000       0.3305910000       0.8305910000
Au           0.3305910000       0.8305910000       0.3305910000
Au           0.3305910000       0.8305910000       0.8305910000
Au           0.8305910000       0.3305910000       0.3305910000
Au           0.8305910000       0.3305910000       0.8305910000
Au           0.8305910000       0.8305910000       0.3305910000
Au           0.8305910000       0.8305910000       0.8305910000
Au           0.4194090000       0.0805910000       0.4194090000
Au           0.4194090000       0.0805910000       0.9194090000
Au           0.4194090000       0.5805910000       0.4194090000
Au           0.4194090000       0.5805910000       0.9194090000
Au           0.9194090000       0.0805910000       0.4194090000
Au           0.9194090000       0.0805910000       0.9194090000
Au           0.9194090000       0.5805910000       0.4194090000
Au           0.9194090000       0.5805910000       0.9194090000
Au           0.0805910000       0.4194090000       0.4194090000
Au           0.0805910000       0.4194090000       0.9194090000
Au           0.0805910000       0.9194090000       0.4194090000
Au           0.0805910000       0.9194090000       0.9194090000
Au           0.5805910000       0.4194090000       0.4194090000
Au           0.5805910000       0.4194090000       0.9194090000
Au           0.5805910000       0.9194090000       0.4194090000
Au           0.5805910000       0.9194090000       0.9194090000
Au           0.4194090000       0.4194090000       0.0805910000
Au           0.4194090000       0.4194090000       0.5805910000
Au           0.4194090000       0.9194090000       0.0805910000
Au           0.4194090000       0.9194090000       0.5805910000
Au           0.9194090000       0.4194090000       0.0805910000
Au           0.9194090000       0.4194090000       0.5805910000
Au           0.9194090000       0.9194090000       0.0805910000
Au           0.9194090000       0.9194090000       0.5805910000
K_POINTS automatic
2 2 2 0 0 0
CELL_PARAMETERS angstrom
     19.5525400000       0.0000000000       0.0000000000
      0.0000000000      19.5525400000       0.0000000000
      0.0000000000       0.0000000000      19.5525400000
